g9 0 1 0 1 20130207 0 4 0 496	# problem hs070
 4 1 1 0 0	# vars, constraints, objectives, ranges, eqns
 1 1	# nonlinear constraints, objectives
 0 0	# network constraints: nonlinear, linear
 2 4 2	# nonlinear vars in constraints, objectives, both
 0 0 0 1	# linear network variables; functions; arith, flags
 0 0 0 0 0	# discrete variables: binary, integer, nonlinear (b,c,o)
 2 4	# nonzeros in Jacobian, gradients
 0 0	# max name lengths: constraints, variables
 0 0 0 0 20	# common exprs: b,c,o,c1,o1
C0	#constr1
o2	#*
o1	# - 
n1
v0	#x[3]
v1	#x[4]
V4 1 2	#b
0 1
o2	#*
o1	# - 
n1
v0	#x[3]
v1	#x[4]
V5 0 2	#y_cal[1]
o0	# + 
o2	#*
o0	# + 
n1
o3	#/
n0.08333333333333333
v3	#x[2]
o2	#*
o2	#*
o2	#*
o2	#*
v0	#x[3]
o5	#^
v4	#b
v3	#x[2]
o39	#sqrt
o3	#/
v3	#x[2]
n6.2832
o5	#^
n0.013012361743656475
o0	# + 
n-1
v3	#x[2]
o44	#exp
o1	# - 
v3	#x[2]
o3	#/
o2	#*
o2	#*
n0.1
v4	#b
v3	#x[2]
n7.658
o2	#*
o0	# + 
n1
o3	#/
n0.08333333333333333
v2	#x[1]
o2	#*
o2	#*
o2	#*
o2	#*
o1	# - 
n1
v0	#x[3]
o5	#^
o3	#/
v4	#b
v1	#x[4]
v2	#x[1]
o39	#sqrt
o3	#/
v2	#x[1]
n6.2832
o5	#^
n0.013058239749281797
o0	# + 
n-1
v2	#x[1]
o44	#exp
o1	# - 
v2	#x[1]
o3	#/
o2	#*
o2	#*
n0.1
v4	#b
v2	#x[1]
o2	#*
n7.658
v1	#x[4]
V6 0 2	#y_cal[2]
o0	# + 
o2	#*
o0	# + 
n1
o3	#/
n0.08333333333333333
v3	#x[2]
o2	#*
o2	#*
o2	#*
o2	#*
v0	#x[3]
o5	#^
v4	#b
v3	#x[2]
o39	#sqrt
o3	#/
v3	#x[2]
n6.2832
o5	#^
n0.13012361743656475
o0	# + 
n-1
v3	#x[2]
o44	#exp
o1	# - 
v3	#x[2]
o3	#/
o2	#*
v4	#b
v3	#x[2]
n7.658
o2	#*
o0	# + 
n1
o3	#/
n0.08333333333333333
v2	#x[1]
o2	#*
o2	#*
o2	#*
o2	#*
o1	# - 
n1
v0	#x[3]
o5	#^
o3	#/
v4	#b
v1	#x[4]
v2	#x[1]
o39	#sqrt
o3	#/
v2	#x[1]
n6.2832
o5	#^
n0.13058239749281797
o0	# + 
n-1
v2	#x[1]
o44	#exp
o1	# - 
v2	#x[1]
o3	#/
o2	#*
v4	#b
v2	#x[1]
o2	#*
n7.658
v1	#x[4]
V7 0 2	#y_cal[3]
o0	# + 
o2	#*
o0	# + 
n1
o3	#/
n0.08333333333333333
v3	#x[2]
o2	#*
o2	#*
o2	#*
o2	#*
v0	#x[3]
o5	#^
v4	#b
v3	#x[2]
o39	#sqrt
o3	#/
v3	#x[2]
n6.2832
o5	#^
n0.2602472348731295
o0	# + 
n-1
v3	#x[2]
o44	#exp
o1	# - 
v3	#x[2]
o3	#/
o2	#*
o2	#*
n2
v4	#b
v3	#x[2]
n7.658
o2	#*
o0	# + 
n1
o3	#/
n0.08333333333333333
v2	#x[1]
o2	#*
o2	#*
o2	#*
o2	#*
o1	# - 
n1
v0	#x[3]
o5	#^
o3	#/
v4	#b
v1	#x[4]
v2	#x[1]
o39	#sqrt
o3	#/
v2	#x[1]
n6.2832
o5	#^
n0.26116479498563594
o0	# + 
n-1
v2	#x[1]
o44	#exp
o1	# - 
v2	#x[1]
o3	#/
o2	#*
o2	#*
n2
v4	#b
v2	#x[1]
o2	#*
n7.658
v1	#x[4]
V8 0 2	#y_cal[4]
o0	# + 
o2	#*
o0	# + 
n1
o3	#/
n0.08333333333333333
v3	#x[2]
o2	#*
o2	#*
o2	#*
o2	#*
v0	#x[3]
o5	#^
v4	#b
v3	#x[2]
o39	#sqrt
o3	#/
v3	#x[2]
n6.2832
o5	#^
n0.3903708523096942
o0	# + 
n-1
v3	#x[2]
o44	#exp
o1	# - 
v3	#x[2]
o3	#/
o2	#*
o2	#*
n3
v4	#b
v3	#x[2]
n7.658
o2	#*
o0	# + 
n1
o3	#/
n0.08333333333333333
v2	#x[1]
o2	#*
o2	#*
o2	#*
o2	#*
o1	# - 
n1
v0	#x[3]
o5	#^
o3	#/
v4	#b
v1	#x[4]
v2	#x[1]
o39	#sqrt
o3	#/
v2	#x[1]
n6.2832
o5	#^
n0.3917471924784539
o0	# + 
n-1
v2	#x[1]
o44	#exp
o1	# - 
v2	#x[1]
o3	#/
o2	#*
o2	#*
n3
v4	#b
v2	#x[1]
o2	#*
n7.658
v1	#x[4]
V9 0 2	#y_cal[5]
o0	# + 
o2	#*
o0	# + 
n1
o3	#/
n0.08333333333333333
v3	#x[2]
o2	#*
o2	#*
o2	#*
o2	#*
v0	#x[3]
o5	#^
v4	#b
v3	#x[2]
o39	#sqrt
o3	#/
v3	#x[2]
n6.2832
o5	#^
n0.520494469746259
o0	# + 
n-1
v3	#x[2]
o44	#exp
o1	# - 
v3	#x[2]
o3	#/
o2	#*
o2	#*
n4
v4	#b
v3	#x[2]
n7.658
o2	#*
o0	# + 
n1
o3	#/
n0.08333333333333333
v2	#x[1]
o2	#*
o2	#*
o2	#*
o2	#*
o1	# - 
n1
v0	#x[3]
o5	#^
o3	#/
v4	#b
v1	#x[4]
v2	#x[1]
o39	#sqrt
o3	#/
v2	#x[1]
n6.2832
o5	#^
n0.5223295899712719
o0	# + 
n-1
v2	#x[1]
o44	#exp
o1	# - 
v2	#x[1]
o3	#/
o2	#*
o2	#*
n4
v4	#b
v2	#x[1]
o2	#*
n7.658
v1	#x[4]
V10 0 2	#y_cal[6]
o0	# + 
o2	#*
o0	# + 
n1
o3	#/
n0.08333333333333333
v3	#x[2]
o2	#*
o2	#*
o2	#*
o2	#*
v0	#x[3]
o5	#^
v4	#b
v3	#x[2]
o39	#sqrt
o3	#/
v3	#x[2]
n6.2832
o5	#^
n0.6506180871828238
o0	# + 
n-1
v3	#x[2]
o44	#exp
o1	# - 
v3	#x[2]
o3	#/
o2	#*
o2	#*
n5
v4	#b
v3	#x[2]
n7.658
o2	#*
o0	# + 
n1
o3	#/
n0.08333333333333333
v2	#x[1]
o2	#*
o2	#*
o2	#*
o2	#*
o1	# - 
n1
v0	#x[3]
o5	#^
o3	#/
v4	#b
v1	#x[4]
v2	#x[1]
o39	#sqrt
o3	#/
v2	#x[1]
n6.2832
o5	#^
n0.6529119874640898
o0	# + 
n-1
v2	#x[1]
o44	#exp
o1	# - 
v2	#x[1]
o3	#/
o2	#*
o2	#*
n5
v4	#b
v2	#x[1]
o2	#*
n7.658
v1	#x[4]
V11 0 2	#y_cal[7]
o0	# + 
o2	#*
o0	# + 
n1
o3	#/
n0.08333333333333333
v3	#x[2]
o2	#*
o2	#*
o2	#*
o2	#*
v0	#x[3]
o5	#^
v4	#b
v3	#x[2]
o39	#sqrt
o3	#/
v3	#x[2]
n6.2832
o5	#^
n0.7807417046193884
o0	# + 
n-1
v3	#x[2]
o44	#exp
o1	# - 
v3	#x[2]
o3	#/
o2	#*
o2	#*
n6
v4	#b
v3	#x[2]
n7.658
o2	#*
o0	# + 
n1
o3	#/
n0.08333333333333333
v2	#x[1]
o2	#*
o2	#*
o2	#*
o2	#*
o1	# - 
n1
v0	#x[3]
o5	#^
o3	#/
v4	#b
v1	#x[4]
v2	#x[1]
o39	#sqrt
o3	#/
v2	#x[1]
n6.2832
o5	#^
n0.7834943849569078
o0	# + 
n-1
v2	#x[1]
o44	#exp
o1	# - 
v2	#x[1]
o3	#/
o2	#*
o2	#*
n6
v4	#b
v2	#x[1]
o2	#*
n7.658
v1	#x[4]
V12 0 2	#y_cal[8]
o0	# + 
o2	#*
o0	# + 
n1
o3	#/
n0.08333333333333333
v3	#x[2]
o2	#*
o2	#*
o2	#*
o2	#*
v0	#x[3]
o5	#^
v4	#b
v3	#x[2]
o39	#sqrt
o3	#/
v3	#x[2]
n6.2832
o5	#^
n0.9108653220559532
o0	# + 
n-1
v3	#x[2]
o44	#exp
o1	# - 
v3	#x[2]
o3	#/
o2	#*
o2	#*
n7
v4	#b
v3	#x[2]
n7.658
o2	#*
o0	# + 
n1
o3	#/
n0.08333333333333333
v2	#x[1]
o2	#*
o2	#*
o2	#*
o2	#*
o1	# - 
n1
v0	#x[3]
o5	#^
o3	#/
v4	#b
v1	#x[4]
v2	#x[1]
o39	#sqrt
o3	#/
v2	#x[1]
n6.2832
o5	#^
n0.9140767824497258
o0	# + 
n-1
v2	#x[1]
o44	#exp
o1	# - 
v2	#x[1]
o3	#/
o2	#*
o2	#*
n7
v4	#b
v2	#x[1]
o2	#*
n7.658
v1	#x[4]
V13 0 2	#y_cal[9]
o0	# + 
o2	#*
o0	# + 
n1
o3	#/
n0.08333333333333333
v3	#x[2]
o2	#*
o2	#*
o2	#*
o2	#*
v0	#x[3]
o5	#^
v4	#b
v3	#x[2]
o39	#sqrt
o3	#/
v3	#x[2]
n6.2832
o5	#^
n1.040988939492518
o0	# + 
n-1
v3	#x[2]
o44	#exp
o1	# - 
v3	#x[2]
o3	#/
o2	#*
o2	#*
n8
v4	#b
v3	#x[2]
n7.658
o2	#*
o0	# + 
n1
o3	#/
n0.08333333333333333
v2	#x[1]
o2	#*
o2	#*
o2	#*
o2	#*
o1	# - 
n1
v0	#x[3]
o5	#^
o3	#/
v4	#b
v1	#x[4]
v2	#x[1]
o39	#sqrt
o3	#/
v2	#x[1]
n6.2832
o5	#^
n1.0446591799425438
o0	# + 
n-1
v2	#x[1]
o44	#exp
o1	# - 
v2	#x[1]
o3	#/
o2	#*
o2	#*
n8
v4	#b
v2	#x[1]
o2	#*
n7.658
v1	#x[4]
V14 0 2	#y_cal[10]
o0	# + 
o2	#*
o0	# + 
n1
o3	#/
n0.08333333333333333
v3	#x[2]
o2	#*
o2	#*
o2	#*
o2	#*
v0	#x[3]
o5	#^
v4	#b
v3	#x[2]
o39	#sqrt
o3	#/
v3	#x[2]
n6.2832
o5	#^
n1.1711125569290828
o0	# + 
n-1
v3	#x[2]
o44	#exp
o1	# - 
v3	#x[2]
o3	#/
o2	#*
o2	#*
n9
v4	#b
v3	#x[2]
n7.658
o2	#*
o0	# + 
n1
o3	#/
n0.08333333333333333
v2	#x[1]
o2	#*
o2	#*
o2	#*
o2	#*
o1	# - 
n1
v0	#x[3]
o5	#^
o3	#/
v4	#b
v1	#x[4]
v2	#x[1]
o39	#sqrt
o3	#/
v2	#x[1]
n6.2832
o5	#^
n1.1752415774353617
o0	# + 
n-1
v2	#x[1]
o44	#exp
o1	# - 
v2	#x[1]
o3	#/
o2	#*
o2	#*
n9
v4	#b
v2	#x[1]
o2	#*
n7.658
v1	#x[4]
V15 0 2	#y_cal[11]
o0	# + 
o2	#*
o0	# + 
n1
o3	#/
n0.08333333333333333
v3	#x[2]
o2	#*
o2	#*
o2	#*
o2	#*
v0	#x[3]
o5	#^
v4	#b
v3	#x[2]
o39	#sqrt
o3	#/
v3	#x[2]
n6.2832
o5	#^
n1.3012361743656475
o0	# + 
n-1
v3	#x[2]
o44	#exp
o1	# - 
v3	#x[2]
o3	#/
o2	#*
o2	#*
n10
v4	#b
v3	#x[2]
n7.658
o2	#*
o0	# + 
n1
o3	#/
n0.08333333333333333
v2	#x[1]
o2	#*
o2	#*
o2	#*
o2	#*
o1	# - 
n1
v0	#x[3]
o5	#^
o3	#/
v4	#b
v1	#x[4]
v2	#x[1]
o39	#sqrt
o3	#/
v2	#x[1]
n6.2832
o5	#^
n1.3058239749281797
o0	# + 
n-1
v2	#x[1]
o44	#exp
o1	# - 
v2	#x[1]
o3	#/
o2	#*
o2	#*
n10
v4	#b
v2	#x[1]
o2	#*
n7.658
v1	#x[4]
V16 0 2	#y_cal[12]
o0	# + 
o2	#*
o0	# + 
n1
o3	#/
n0.08333333333333333
v3	#x[2]
o2	#*
o2	#*
o2	#*
o2	#*
v0	#x[3]
o5	#^
v4	#b
v3	#x[2]
o39	#sqrt
o3	#/
v3	#x[2]
n6.2832
o5	#^
n1.431359791802212
o0	# + 
n-1
v3	#x[2]
o44	#exp
o1	# - 
v3	#x[2]
o3	#/
o2	#*
o2	#*
n11
v4	#b
v3	#x[2]
n7.658
o2	#*
o0	# + 
n1
o3	#/
n0.08333333333333333
v2	#x[1]
o2	#*
o2	#*
o2	#*
o2	#*
o1	# - 
n1
v0	#x[3]
o5	#^
o3	#/
v4	#b
v1	#x[4]
v2	#x[1]
o39	#sqrt
o3	#/
v2	#x[1]
n6.2832
o5	#^
n1.4364063724209977
o0	# + 
n-1
v2	#x[1]
o44	#exp
o1	# - 
v2	#x[1]
o3	#/
o2	#*
o2	#*
n11
v4	#b
v2	#x[1]
o2	#*
n7.658
v1	#x[4]
V17 0 2	#y_cal[13]
o0	# + 
o2	#*
o0	# + 
n1
o3	#/
n0.08333333333333333
v3	#x[2]
o2	#*
o2	#*
o2	#*
o2	#*
v0	#x[3]
o5	#^
v4	#b
v3	#x[2]
o39	#sqrt
o3	#/
v3	#x[2]
n6.2832
o5	#^
n1.5614834092387768
o0	# + 
n-1
v3	#x[2]
o44	#exp
o1	# - 
v3	#x[2]
o3	#/
o2	#*
o2	#*
n12
v4	#b
v3	#x[2]
n7.658
o2	#*
o0	# + 
n1
o3	#/
n0.08333333333333333
v2	#x[1]
o2	#*
o2	#*
o2	#*
o2	#*
o1	# - 
n1
v0	#x[3]
o5	#^
o3	#/
v4	#b
v1	#x[4]
v2	#x[1]
o39	#sqrt
o3	#/
v2	#x[1]
n6.2832
o5	#^
n1.5669887699138156
o0	# + 
n-1
v2	#x[1]
o44	#exp
o1	# - 
v2	#x[1]
o3	#/
o2	#*
o2	#*
n12
v4	#b
v2	#x[1]
o2	#*
n7.658
v1	#x[4]
V18 0 2	#y_cal[14]
o0	# + 
o2	#*
o0	# + 
n1
o3	#/
n0.08333333333333333
v3	#x[2]
o2	#*
o2	#*
o2	#*
o2	#*
v0	#x[3]
o5	#^
v4	#b
v3	#x[2]
o39	#sqrt
o3	#/
v3	#x[2]
n6.2832
o5	#^
n1.6916070266753416
o0	# + 
n-1
v3	#x[2]
o44	#exp
o1	# - 
v3	#x[2]
o3	#/
o2	#*
o2	#*
n13
v4	#b
v3	#x[2]
n7.658
o2	#*
o0	# + 
n1
o3	#/
n0.08333333333333333
v2	#x[1]
o2	#*
o2	#*
o2	#*
o2	#*
o1	# - 
n1
v0	#x[3]
o5	#^
o3	#/
v4	#b
v1	#x[4]
v2	#x[1]
o39	#sqrt
o3	#/
v2	#x[1]
n6.2832
o5	#^
n1.6975711674066336
o0	# + 
n-1
v2	#x[1]
o44	#exp
o1	# - 
v2	#x[1]
o3	#/
o2	#*
o2	#*
n13
v4	#b
v2	#x[1]
o2	#*
n7.658
v1	#x[4]
V19 0 2	#y_cal[15]
o0	# + 
o2	#*
o0	# + 
n1
o3	#/
n0.08333333333333333
v3	#x[2]
o2	#*
o2	#*
o2	#*
o2	#*
v0	#x[3]
o5	#^
v4	#b
v3	#x[2]
o39	#sqrt
o3	#/
v3	#x[2]
n6.2832
o5	#^
n1.8217306441119063
o0	# + 
n-1
v3	#x[2]
o44	#exp
o1	# - 
v3	#x[2]
o3	#/
o2	#*
o2	#*
n14
v4	#b
v3	#x[2]
n7.658
o2	#*
o0	# + 
n1
o3	#/
n0.08333333333333333
v2	#x[1]
o2	#*
o2	#*
o2	#*
o2	#*
o1	# - 
n1
v0	#x[3]
o5	#^
o3	#/
v4	#b
v1	#x[4]
v2	#x[1]
o39	#sqrt
o3	#/
v2	#x[1]
n6.2832
o5	#^
n1.8281535648994516
o0	# + 
n-1
v2	#x[1]
o44	#exp
o1	# - 
v2	#x[1]
o3	#/
o2	#*
o2	#*
n14
v4	#b
v2	#x[1]
o2	#*
n7.658
v1	#x[4]
V20 0 2	#y_cal[16]
o0	# + 
o2	#*
o0	# + 
n1
o3	#/
n0.08333333333333333
v3	#x[2]
o2	#*
o2	#*
o2	#*
o2	#*
v0	#x[3]
o5	#^
v4	#b
v3	#x[2]
o39	#sqrt
o3	#/
v3	#x[2]
n6.2832
o5	#^
n1.951854261548471
o0	# + 
n-1
v3	#x[2]
o44	#exp
o1	# - 
v3	#x[2]
o3	#/
o2	#*
o2	#*
n15
v4	#b
v3	#x[2]
n7.658
o2	#*
o0	# + 
n1
o3	#/
n0.08333333333333333
v2	#x[1]
o2	#*
o2	#*
o2	#*
o2	#*
o1	# - 
n1
v0	#x[3]
o5	#^
o3	#/
v4	#b
v1	#x[4]
v2	#x[1]
o39	#sqrt
o3	#/
v2	#x[1]
n6.2832
o5	#^
n1.9587359623922693
o0	# + 
n-1
v2	#x[1]
o44	#exp
o1	# - 
v2	#x[1]
o3	#/
o2	#*
o2	#*
n15
v4	#b
v2	#x[1]
o2	#*
n7.658
v1	#x[4]
V21 0 2	#y_cal[17]
o0	# + 
o2	#*
o0	# + 
n1
o3	#/
n0.08333333333333333
v3	#x[2]
o2	#*
o2	#*
o2	#*
o2	#*
v0	#x[3]
o5	#^
v4	#b
v3	#x[2]
o39	#sqrt
o3	#/
v3	#x[2]
n6.2832
o5	#^
n2.081977878985036
o0	# + 
n-1
v3	#x[2]
o44	#exp
o1	# - 
v3	#x[2]
o3	#/
o2	#*
o2	#*
n16
v4	#b
v3	#x[2]
n7.658
o2	#*
o0	# + 
n1
o3	#/
n0.08333333333333333
v2	#x[1]
o2	#*
o2	#*
o2	#*
o2	#*
o1	# - 
n1
v0	#x[3]
o5	#^
o3	#/
v4	#b
v1	#x[4]
v2	#x[1]
o39	#sqrt
o3	#/
v2	#x[1]
n6.2832
o5	#^
n2.0893183598850875
o0	# + 
n-1
v2	#x[1]
o44	#exp
o1	# - 
v2	#x[1]
o3	#/
o2	#*
o2	#*
n16
v4	#b
v2	#x[1]
o2	#*
n7.658
v1	#x[4]
V22 0 2	#y_cal[18]
o0	# + 
o2	#*
o0	# + 
n1
o3	#/
n0.08333333333333333
v3	#x[2]
o2	#*
o2	#*
o2	#*
o2	#*
v0	#x[3]
o5	#^
v4	#b
v3	#x[2]
o39	#sqrt
o3	#/
v3	#x[2]
n6.2832
o5	#^
n2.212101496421601
o0	# + 
n-1
v3	#x[2]
o44	#exp
o1	# - 
v3	#x[2]
o3	#/
o2	#*
o2	#*
n17
v4	#b
v3	#x[2]
n7.658
o2	#*
o0	# + 
n1
o3	#/
n0.08333333333333333
v2	#x[1]
o2	#*
o2	#*
o2	#*
o2	#*
o1	# - 
n1
v0	#x[3]
o5	#^
o3	#/
v4	#b
v1	#x[4]
v2	#x[1]
o39	#sqrt
o3	#/
v2	#x[1]
n6.2832
o5	#^
n2.2199007573779053
o0	# + 
n-1
v2	#x[1]
o44	#exp
o1	# - 
v2	#x[1]
o3	#/
o2	#*
o2	#*
n17
v4	#b
v2	#x[1]
o2	#*
n7.658
v1	#x[4]
V23 0 2	#y_cal[19]
o0	# + 
o2	#*
o0	# + 
n1
o3	#/
n0.08333333333333333
v3	#x[2]
o2	#*
o2	#*
o2	#*
o2	#*
v0	#x[3]
o5	#^
v4	#b
v3	#x[2]
o39	#sqrt
o3	#/
v3	#x[2]
n6.2832
o5	#^
n2.3422251138581656
o0	# + 
n-1
v3	#x[2]
o44	#exp
o1	# - 
v3	#x[2]
o3	#/
o2	#*
o2	#*
n18
v4	#b
v3	#x[2]
n7.658
o2	#*
o0	# + 
n1
o3	#/
n0.08333333333333333
v2	#x[1]
o2	#*
o2	#*
o2	#*
o2	#*
o1	# - 
n1
v0	#x[3]
o5	#^
o3	#/
v4	#b
v1	#x[4]
v2	#x[1]
o39	#sqrt
o3	#/
v2	#x[1]
n6.2832
o5	#^
n2.3504831548707235
o0	# + 
n-1
v2	#x[1]
o44	#exp
o1	# - 
v2	#x[1]
o3	#/
o2	#*
o2	#*
n18
v4	#b
v2	#x[1]
o2	#*
n7.658
v1	#x[4]
O0 0	#obj
o54	#sumlist
19
o5	#^
o0	# + 
n-0.00189
v5	#y_cal[1]
n2
o5	#^
o0	# + 
n-0.1038
v6	#y_cal[2]
n2
o5	#^
o0	# + 
n-0.268
v7	#y_cal[3]
n2
o5	#^
o0	# + 
n-0.506
v8	#y_cal[4]
n2
o5	#^
o0	# + 
n-0.577
v9	#y_cal[5]
n2
o5	#^
o0	# + 
n-0.604
v10	#y_cal[6]
n2
o5	#^
o0	# + 
n-0.725
v11	#y_cal[7]
n2
o5	#^
o0	# + 
n-0.898
v12	#y_cal[8]
n2
o5	#^
o0	# + 
n-0.947
v13	#y_cal[9]
n2
o5	#^
o0	# + 
n-0.845
v14	#y_cal[10]
n2
o5	#^
o0	# + 
n-0.702
v15	#y_cal[11]
n2
o5	#^
o0	# + 
n-0.528
v16	#y_cal[12]
n2
o5	#^
o0	# + 
n-0.385
v17	#y_cal[13]
n2
o5	#^
o0	# + 
n-0.257
v18	#y_cal[14]
n2
o5	#^
o0	# + 
n-0.159
v19	#y_cal[15]
n2
o5	#^
o0	# + 
n-0.0869
v20	#y_cal[16]
n2
o5	#^
o0	# + 
n-0.0453
v21	#y_cal[17]
n2
o5	#^
o0	# + 
n-0.01509
v22	#y_cal[18]
n2
o5	#^
o0	# + 
n-0.00189
v23	#y_cal[19]
n2
x4	# initial guess
0 0.04
1 2
2 2
3 4
r	#1 ranges (rhs's)
2 0
b	#4 bounds (on variables)
0 1e-05 1
0 1e-05 100
0 1e-05 100
0 1e-05 100
k3	#intermediate Jacobian column lengths
1
2
2
J0 2
0 1
1 0
G0 4
0 0
1 0
2 0
3 0
